(set-logic QF_S)
(declare-fun var0 () String)
(declare-fun var1 () String)
(declare-fun var2 () String)
(declare-fun var3 () Int)
(declare-fun var4 () String)
(declare-fun var5 () Int)
(declare-fun var6 () Int)
(declare-fun var7 () Int)
(assert (< (str.len var0) (str.len var1)))
(assert (str.prefixof (str.substr (str.at var2 var3) (str.len "*ibS") (str.to.int var4)) (str.replace var2 var4 var2)))
(assert (<= var5 var6))
(assert (str.suffixof (str.substr var1 var7 var3) (str.substr var4 var3 var3)))
(check-sat)